c SAT Generator for power-law distributed variable frequencies
c -g u -v 20 -c 91 -k 3 -p 2.750000 -b 3.200000 -f /home/schmidt/Devel/ni-kop-sat/data/ensemble/ruf20-91/ruf20-91-675 -u 1 -U 1 -s 2069688899
p cnf 20 91
-1 9 -10 0
-1 -9 -19 0
-7 9 19 0
-14 18 19 0
-5 13 -14 0
4 -15 20 0
-5 10 13 0
11 -15 16 0
12 -13 20 0
-11 15 17 0
4 7 -17 0
4 -13 19 0
7 8 -12 0
-3 6 19 0
1 -15 -16 0
-1 -2 5 0
4 11 -20 0
1 6 -14 0
4 7 19 0
-3 -9 14 0
5 16 19 0
-5 14 15 0
8 13 -20 0
-2 -5 -11 0
-9 12 -16 0
1 -5 -7 0
7 11 -12 0
15 16 20 0
-5 -12 19 0
5 11 18 0
6 7 -18 0
3 -4 -14 0
14 16 19 0
2 7 -12 0
-3 8 -14 0
2 -5 16 0
1 -5 9 0
4 -7 9 0
-1 -6 -20 0
-1 5 -16 0
2 -5 -11 0
3 -7 -9 0
4 17 -20 0
-3 -6 -11 0
12 -14 17 0
6 8 -17 0
-1 -14 -20 0
11 18 -20 0
8 -9 18 0
-13 16 18 0
-3 -4 14 0
-10 -13 -14 0
-4 9 15 0
-3 -5 13 0
-12 -14 17 0
-5 -12 -15 0
11 -16 17 0
-7 -10 -12 0
-3 -4 -10 0
2 14 16 0
-4 11 -12 0
-7 9 -15 0
5 -12 14 0
-11 -13 19 0
-8 9 -20 0
-1 2 -10 0
-2 16 -18 0
7 -9 -15 0
1 2 6 0
-5 -8 17 0
3 -13 -15 0
-1 10 19 0
8 -15 20 0
-2 -8 20 0
-7 -12 14 0
6 -18 20 0
6 -10 19 0
-2 -12 20 0
4 7 15 0
-3 7 -18 0
-2 -4 9 0
-5 -12 16 0
8 -9 -20 0
-1 -7 -18 0
3 -13 16 0
3 14 16 0
-2 11 -16 0
-6 14 20 0
-6 -17 -18 0
1 14 16 0
-2 13 20 0
